c turning on binary mode checking
c parsing input formula with 3467274 variables and 12115112 clauses
c finished parsing, read 7356 bytes from proof file
c detected empty clause; start verification via backward checking
c 776 of 12115112 clauses in core                            
c 90 of 121 lemmas in core using 907 resolution steps
c 0 RAT lemmas in core; 0 redundant literals in core lemmas
s VERIFIED
c verification time: 17.194 seconds
